257 183
127 482
154 70
267 134
59 387
486 427
212 72
494 223
483 70
74 349
376 165
51 120
190 437
79 488
136 253
22 482
364 184
185 417
194 455
166 361
330 209
147 479
376 132
345 194
241 174
264 131
414 102
220 216
138 432
163 356
176 35
395 355
496 158
423 366
81 150
281 156
151 69
290 336
23 213
40 255
337 326
51 431
386 419
111 387
414 33
240 398
356 324
195 270
0 332
84 150
445 125
453 269
119 456
398 499
87 431
398 263
100 264
96 415
321 168
244 94
14 159
317 125
392 433
86 192
218 444
244 459
29 34
488 60
246 423
471 438
484 156
487 225
468 189
84 12
163 127
280 489
79 100
412 318
336 130
195 493
141 257
264 339
252 292
286 119
49 57
296 104
228 46
74 364
64 117
30 0
169 414
19 313
56 449
265 400
244 267
415 59
136 370
255 59
224 255
348 345
